NAME: cities_5_8
TYPE: TSP
COMMENT: Generated from CSV
DIMENSION: 5
EDGE_WEIGHT_TYPE: EUC_2D
NODE_COORD_SECTION
1 92.13718017705996 17.93830149171982
2 50.61451636922533 8.944991383525602
3 13.24829135114085 50.613129263521216
4 75.07775171786439 5.480324494358523
5 43.57928984871901 73.9937404456903
EOF
